/*********************************************
 * OPL 22.1.1.0 Data
 * Author: duongphuonggiang
 * Creation Date: Mar 9, 2024 at 2:55:17 PM
 *********************************************/

 N=3;
 M=5;
 
 c=[50,40,60];
 a= [
    [1, 0, 0],
    [1, 1, 0],
    [1, 1, 0],
    [0, 1, 1],
    [0, 0, 1]
];